NAME : a280.best.tour
TYPE : TOUR
DIMENSION : 280
TOUR_SECTION
1
5
6
277
4
276
275
274
9
7
8
10
11
12
13
14
15
24
23
25
22
26
27
28
29
126
127
128
130
131
20
21
129
154
155
153
156
157
158
159
160
175
161
162
184
183
182
181
180
179
145
144
143
146
147
142
141
140
265
266
137
138
139
148
149
150
178
176
177
151
152
119
120
121
122
118
117
115
114
111
112
110
109
89
81
82
83
88
113
116
86
87
84
85
65
64
63
62
61
60
59
44
45
42
43
123
124
125
30
31
32
33
34
36
37
38
35
39
40
41
48
49
50
51
52
53
54
47
46
55
56
57
58
68
69
70
67
66
71
72
73
74
76
75
77
78
79
80
94
95
96
97
98
93
92
91
90
104
103
102
99
100
101
169
168
167
166
171
172
170
105
108
107
106
173
174
163
164
165
188
189
186
185
187
190
191
192
193
194
195
197
198
199
200
201
196
202
203
204
205
212
213
214
216
215
218
217
220
221
222
219
223
224
225
226
227
211
210
209
252
253
208
207
206
254
255
256
257
258
259
262
263
264
267
268
136
135
269
270
134
133
132
19
18
17
16
271
272
273
261
260
278
279
248
249
250
251
230
229
228
234
235
236
233
237
232
231
238
239
246
247
244
245
240
241
243
242
2
280
3
EOF